NAME : pairopt.-194383.tour
COMMENT : Length = -194383
COMMENT : Found by LKH-3 [Keld Helsgaun] Tue Aug 29 11:06:57 2023
TYPE : TOUR
DIMENSION : 21
TOUR_SECTION
1
3
20
14
7
10
15
18
17
19
16
4
8
21
2
12
9
5
11
13
6
-1
EOF
